SPARKNaCl/why3-z3/sparknacl-sign.adb_913_23_initialization_1.smt2
;; produced by z3_gnatprove.drv ;;
(set-info :smt-lib-version 2.5)
(set-info :source |VC generated by SPARK 2014|)
(set-info :category industrial)
(set-info :status unknown)
;;; generated by SMT-LIB2 driver
;;; SMT-LIB2 driver: bit-vectors, common part
;;; SMT-LIB2: integer arithmetic
;; "length"
(define-fun length ((x Int) (y Int)) Int
  (ite (<= x y) (+ (- y x) 1) 0))

(declare-sort tinteger_32B 0)

;; "tinteger_32B'int"
(declare-fun tinteger_32Bqtint (tinteger_32B) Int)

;; "tinteger_32B'axiom"
(assert
  (forall ((i tinteger_32B))
    (and
      (<= (- 2147483648) (tinteger_32Bqtint i))
      (<= (tinteger_32Bqtint i) 2147483647))))

;; "in_range"
(define-fun in_range ((x Int)) Bool
  (and (<= (- 2147483648) x) (<= x 2147483647)))

;; "to_rep"
(define-fun to_rep ((x tinteger_32B)) Int
  (tinteger_32Bqtint x))

;; "of_rep"
(declare-fun of_rep (Int) tinteger_32B)

;; "inversion_axiom"
(assert
  (forall ((x tinteger_32B))
    (! (= (of_rep (to_rep x)) x) :pattern ((to_rep x)) )))

;; "range_axiom"
(assert
  (forall ((x tinteger_32B))
    (! (in_range (to_rep x)) :pattern ((to_rep x)) )))

;; "coerce_axiom"
(assert
  (forall ((x Int))
    (! (=> (in_range x) (= (to_rep (of_rep x)) x)) :pattern ((to_rep
                                                               (of_rep x))) )))

;; "in_range"
(define-fun in_range1 ((x Int)) Bool
  (and (<= 0 x) (<= x 2147483647)))

(declare-sort byte 0)

;; "to_rep"
(declare-fun to_rep1 (byte) (_ BitVec 8))

;; "of_rep"
(declare-fun of_rep1 ((_ BitVec 8)) byte)

;; "inversion_axiom"
(assert
  (forall ((x byte)) (! (= (of_rep1 (to_rep1 x)) x) :pattern ((to_rep1 x)) )))

;; "range_axiom"
(assert true)

;; "coerce_axiom"
(assert
  (forall ((x (_ BitVec 8)))
    (! (= (to_rep1 (of_rep1 x)) x) :pattern ((to_rep1 (of_rep1 x))) )))

(declare-sort map1 0)

(declare-datatypes ()
  ((map__ref (map__refqtmk (map__content map1)))))

;; "has_bounds"
(declare-fun has_bounds (map1
  Int
  Int) Bool)

;; "get"
(declare-fun get (map1
  Int) byte)

;; "slide"
(declare-fun slide (map1
  Int
  Int) map1)

;; "slide_eq"
(assert
  (forall ((a map1) (first Int))
    (! (= (slide a first first) a) :pattern ((slide a first first)) )))

;; "slide_def"
(assert
  (forall ((a map1) (old_first Int) (new_first Int))
    (! (and
         (forall ((i Int))
           (! (= (get (slide a old_first new_first) i) (get
                                                         a
                                                         (- i (- new_first old_first)))) :pattern (
           (get
             (slide a old_first new_first)
             i)) ))
         (forall ((new_last Int))
           (! (=>
                (has_bounds a old_first (- new_last (- new_first old_first)))
                (has_bounds (slide a old_first new_first) new_first new_last)) :pattern (
           (has_bounds
             (slide a old_first new_first)
             new_first
             new_last)) ))) :pattern ((slide a old_first new_first)) )))

;; "slice"
(declare-fun slice (map1
  Int
  Int) map1)

;; "slice_eq"
(assert
  (forall ((a map1) (f Int) (l Int))
    (! (=> (has_bounds a f l) (= (slice a f l) a)) :pattern ((slice a f l)
    (has_bounds a f l)) )))

;; "slice_slice"
(assert
  (forall ((a map1) (f1 Int) (l1 Int) (f2 Int) (l2 Int))
    (! (=>
         (and (<= f1 f2) (<= l2 l1))
         (= (slice (slice a f1 l1) f2 l2) (slice a f2 l2))) :pattern (
    (slice
      (slice a f1 l1)
      f2
      l2)) )))

;; "slice_def"
(assert
  (forall ((a map1) (f Int) (l Int))
    (! (forall ((i Int))
         (! (=> (and (<= f i) (<= i l)) (= (get (slice a f l) i) (get a i))) :pattern (
         (get
           (slice a f l)
           i)) :pattern ((get a i)) )) :pattern ((slice a f l)) )))

;; "slice_has_bounds"
(assert
  (forall ((a map1) (f Int) (l Int))
    (! (has_bounds (slice a f l) f l) :pattern ((has_bounds
                                                  (slice a f l)
                                                  f
                                                  l)) )))

;; "concat"
(declare-fun concat1 (map1
  Int
  Int
  map1
  Int
  Int
  Int) map1)

;; "concat_def"
(assert
  (forall ((a map1) (b map1) (a_first Int) (a_last Int) (b_first Int) (b_last Int) (new_last Int))
    (! (and
         (=>
           (<= a_first a_last)
           (=>
             (<= a_last new_last)
             (has_bounds
               (concat1 a a_first a_last b b_first b_last new_last)
               a_first
               new_last)))
         (forall ((i Int))
           (! (and
                (=>
                  (and (<= a_first i) (<= i a_last))
                  (= (get
                       (concat1 a a_first a_last b b_first b_last new_last)
                       i) (get a i)))
                (=>
                  (and (< a_last i) (<= i new_last))
                  (= (get
                       (concat1 a a_first a_last b b_first b_last new_last)
                       i) (get b (+ (- i a_last) (- b_first 1)))))) :pattern (
           (get
             (concat1 a a_first a_last b b_first b_last new_last)
             i)) ))) :pattern ((concat1
                                 a
                                 a_first
                                 a_last
                                 b
                                 b_first
                                 b_last
                                 new_last)) )))

(declare-datatypes ()
  ((t (tqtmk (rec__first tinteger_32B)(rec__last tinteger_32B)))))

;; "mk"
(declare-fun mk (Int
  Int) t)

;; "mk_def"
(assert
  (forall ((f Int) (l Int))
    (! (=>
         (in_range f)
         (=>
           (in_range l)
           (and
             (= (to_rep (rec__first (mk f l))) f)
             (= (to_rep (rec__last (mk f l))) l)))) :pattern ((mk f l)) )))

;; "dynamic_property"
(define-fun dynamic_property ((range_first Int) (range_last Int) (low Int) (high Int)) Bool
  (and
    (in_range low)
    (and
      (in_range high)
      (=> (<= low high) (and (in_range1 low) (in_range1 high))))))

(declare-datatypes ()
  ((us_t (us_tqtmk (elts map1)(rt t)))))

;; "to_array"
(define-fun to_array ((a us_t)) map1
  (elts a))

;; "of_array"
(define-fun of_array ((a map1) (f Int) (l Int)) us_t
  (us_tqtmk a (mk f l)))

;; "first"
(define-fun first ((a us_t)) Int
  (to_rep (rec__first (rt a))))

;; "last"
(define-fun last ((a us_t)) Int
  (to_rep (rec__last (rt a))))

;; "length"
(define-fun length1 ((a us_t)) Int
  (ite (<= (first a) (last a)) (+ (- (last a) (first a)) 1) 0))

;; "well_formed"
(define-fun well_formed ((a us_t)) Bool
  (has_bounds
    (elts a)
    (to_rep (rec__first (rt a)))
    (to_rep (rec__last (rt a)))))

(declare-const m us_t)

(declare-datatypes ()
  ((byte__init_wrapper
   (byte__init_wrapperqtmk (rec__value byte)(us_attr__init Bool)))))

(declare-sort map2 0)

(declare-datatypes ()
  ((map__ref1 (map__refqtmk1 (map__content1 map2)))))

;; "has_bounds"
(declare-fun has_bounds1 (map2
  Int
  Int) Bool)

;; "get"
(declare-fun get1 (map2
  Int) byte__init_wrapper)

;; "slice"
(declare-fun slice1 (map2
  Int
  Int) map2)

;; "slice_eq"
(assert
  (forall ((a map2) (f Int) (l Int))
    (! (=> (has_bounds1 a f l) (= (slice1 a f l) a)) :pattern ((slice1 a f l)
    (has_bounds1 a f l)) )))

;; "slice_slice"
(assert
  (forall ((a map2) (f1 Int) (l1 Int) (f2 Int) (l2 Int))
    (! (=>
         (and (<= f1 f2) (<= l2 l1))
         (= (slice1 (slice1 a f1 l1) f2 l2) (slice1 a f2 l2))) :pattern (
    (slice1
      (slice1 a f1 l1)
      f2
      l2)) )))

;; "slice_def"
(assert
  (forall ((a map2) (f Int) (l Int))
    (! (forall ((i Int))
         (! (=>
              (and (<= f i) (<= i l))
              (= (get1 (slice1 a f l) i) (get1 a i))) :pattern ((get1
                                                                  (slice1
                                                                    a
                                                                    f
                                                                    l)
                                                                  i)) :pattern (
         (get1
           a
           i)) )) :pattern ((slice1 a f l)) )))

;; "slice_has_bounds"
(assert
  (forall ((a map2) (f Int) (l Int))
    (! (has_bounds1 (slice1 a f l) f l) :pattern ((has_bounds1
                                                    (slice1 a f l)
                                                    f
                                                    l)) )))

(declare-const x__first tinteger_32B)

(declare-const x__last tinteger_32B)

(declare-const zero_bytes_32 map1)

;; "convert"
(declare-fun convert (map1) map2)

;; "convert__def"
(assert
  (forall ((a map1))
    (let ((b (convert a)))
      (forall ((temp___170 Int))
        (and
          (= (us_attr__init
               (byte__init_wrapperqtmk
                 (of_rep1 (to_rep1 (get a temp___170)))
                 true)) (us_attr__init (get1 b temp___170)))
          (= (to_rep1
               (rec__value
                 (byte__init_wrapperqtmk
                   (of_rep1 (to_rep1 (get a temp___170)))
                   true))) (to_rep1 (rec__value (get1 b temp___170)))))))))

(declare-datatypes ()
  ((t1 (tqtmk1 (rec__first1 tinteger_32B)(rec__last1 tinteger_32B)))))

;; "mk"
(declare-fun mk1 (Int
  Int) t1)

;; "mk_def"
(assert
  (forall ((f Int) (l Int))
    (! (=>
         (in_range f)
         (=>
           (in_range l)
           (and
             (= (to_rep (rec__first1 (mk1 f l))) f)
             (= (to_rep (rec__last1 (mk1 f l))) l)))) :pattern ((mk1 f l)) )))

(declare-datatypes ()
  ((us_t1 (us_tqtmk1 (elts1 map2)(rt1 t1)))))

;; "to_array"
(define-fun to_array1 ((a us_t1)) map2
  (elts1 a))

;; "of_array"
(define-fun of_array1 ((a map2) (f Int) (l Int)) us_t1
  (us_tqtmk1 a (mk1 f l)))

;; "first"
(define-fun first1 ((a us_t1)) Int
  (to_rep (rec__first1 (rt1 a))))

;; "last"
(define-fun last1 ((a us_t1)) Int
  (to_rep (rec__last1 (rt1 a))))

;; "well_formed"
(define-fun well_formed1 ((a us_t1)) Bool
  (has_bounds1
    (elts1 a)
    (to_rep (rec__first1 (rt1 a)))
    (to_rep (rec__last1 (rt1 a)))))

;; "dynamic_invariant"
(define-fun dynamic_invariant ((temp___expr_486 us_t) (temp___is_init_482 Bool) (temp___skip_constant_483 Bool) (temp___do_toplevel_484 Bool) (temp___do_typ_inv_485 Bool)) Bool
  (and
    (=>
      (not (= temp___skip_constant_483 true))
      (dynamic_property
        0
        2147483647
        (first temp___expr_486)
        (last temp___expr_486)))
    (well_formed temp___expr_486)))

;; "__is_initialized"
(define-fun us_is_initialized ((temp___expr_495 us_t1)) Bool
  (forall ((temp___496 Int))
    (=>
      (and
        (<= (first1 temp___expr_495) temp___496)
        (<= temp___496 (last1 temp___expr_495)))
      (= (us_attr__init (get1 (to_array1 temp___expr_495) temp___496)) true))))

;; "sparknacl__zero_bytes_32__aggregate_def"
(declare-fun sparknacl__zero_bytes_32__aggregate_def ((_ BitVec 8)) map1)

;; "zero_bytes_32__def_axiom"
(assert
  (= zero_bytes_32 (let ((temp___435 (sparknacl__zero_bytes_32__aggregate_def
                                       #x00)))
                     (let ((temp___436 temp___435)) temp___436))))

;; "def_axiom"
(assert
  (forall ((temp___431 (_ BitVec 8)))
    (let ((temp___432 (sparknacl__zero_bytes_32__aggregate_def temp___431)))
      (and
        (has_bounds temp___432 0 31)
        (forall ((temp___433 Int))
          (! (=>
               (and (<= 0 temp___433) (<= temp___433 31))
               (= (to_rep1 (get temp___432 temp___433)) temp___431)) :pattern (
          (get
            temp___432
            temp___433)) ))))))

(declare-const d map1)

(declare-const x map2)

;; "x'unused"
(define-fun xqtunused () map__ref1
  (map__refqtmk1 x))

;; "d'unused"
(define-fun dqtunused () map__ref
  (map__refqtmk d))

;; "Assume"
(assert (dynamic_invariant m true false true true))

;; "Assume"
(assert (has_bounds zero_bytes_32 0 31))

(declare-const temp___2839 map1)

;; "H"
(assert (has_bounds temp___2839 0 31))

;; "H"
(assert
  (forall ((temp___434 Int))
    (! (=>
         (and (<= 0 temp___434) (<= temp___434 31))
         (= (to_rep1 (get temp___2839 temp___434)) #x00)) :pattern ((get
                                                                    temp___2839
                                                                    temp___434)) )))

;; "H"
(assert (= temp___2839 (sparknacl__zero_bytes_32__aggregate_def #x00)))

;; "sparknacl__zero_bytes_32__aggregate_def'result'unused"
(define-fun sparknacl__zero_bytes_32__aggregate_defqtresultqtunused () map1
  temp___2839)

;; "Assume"
(assert (= temp___2839 zero_bytes_32))

;; "Assume"
(assert (has_bounds d 0 63))

;; "Assume"
(assert
  (and
    (dynamic_property 0 2147483647 (to_rep x__first) (to_rep x__last))
    (well_formed1 (of_array1 x (to_rep x__first) (to_rep x__last)))))

;; "Assume"
(assert (dynamic_invariant m true false true true))

;; "Assume"
(assert
  (and
    (and
      (and (= (first m) 0) (= (to_rep x__first) 0))
      (<= (last m) 2147483583))
    (and
      (= (length (to_rep x__first) (to_rep x__last)) (+ (length1 m) 64))
      (= (to_rep x__last) (+ (last m) 64)))))

(declare-const o Int)

;; "Ensures"
(assert (= (to_rep x__last) o))

;; "to_rep'result'unused"
(define-fun to_repqtresultqtunused () Int
  o)

(declare-const o1 Int)

;; "Ensures"
(assert (= (to_rep x__first) o1))

;; "to_rep'result'unused"
(define-fun to_repqtresultqtunused1 () Int
  o1)

;; "map__content'result'unused"
(define-fun map__contentqtresultqtunused () map2
  x)

;; "temp___2761"
(define-fun temp___2761 () us_t1
  (of_array1 x o1 o))

;; "of_array'result'unused"
(define-fun of_arrayqtresultqtunused () us_t1
  temp___2761)

;; "temp___2763"
(define-fun temp___2763 () map2
  (convert zero_bytes_32))

;; "convert'result'unused"
(define-fun convertqtresultqtunused () map2
  temp___2763)

(declare-const infix_lseqqtresultqtunused Bool)

;; "H"
(assert (= infix_lseqqtresultqtunused (ite (<= 0 31) true false)))

(declare-const usf us_t1)

;; "H"
(assert true)

;; "H"
(assert (= o1 (first1 usf)))

;; "H"
(assert (= o (last1 usf)))

;; "H"
(assert
  (forall ((temp___2764 Int))
    (ite (and (<= 0 temp___2764) (<= temp___2764 31))
      (= (get1 (to_array1 usf) temp___2764) (get1 temp___2763 temp___2764))
      (= (get1 (to_array1 usf) temp___2764) (get1 x temp___2764)))))

;; "any'result'unused"
(define-fun anyqtresultqtunused () us_t1
  usf)

;; "o"
(define-fun o2 () map2
  (to_array1 usf))

;; "to_array'result'unused"
(define-fun to_arrayqtresultqtunused () map2
  o2)

(declare-const x1 map2)

;; "x'unused"
(define-fun xqtunused1 () map__ref1
  (map__refqtmk1 x1))

;; "H"
(assert (= x1 o2))

(declare-const o3 Int)

;; "Ensures"
(assert (= (to_rep x__last) o3))

;; "to_rep'result'unused"
(define-fun to_repqtresultqtunused2 () Int
  o3)

(declare-const o4 Int)

;; "Ensures"
(assert (= (to_rep x__first) o4))

;; "to_rep'result'unused"
(define-fun to_repqtresultqtunused3 () Int
  o4)

;; "map__content'result'unused"
(define-fun map__contentqtresultqtunused1 () map2
  x1)

;; "temp___2774"
(define-fun temp___2774 () us_t1
  (of_array1 x1 o4 o3))

;; "of_array'result'unused"
(define-fun of_arrayqtresultqtunused1 () us_t1
  temp___2774)

;; "Assert"
(assert
  (=> (<= 32 63) (and (and (<= 0 32) (<= 32 63)) (and (<= 0 63) (<= 63 63)))))

;; "map__content'result'unused"
(define-fun map__contentqtresultqtunused2 () map1
  d)

;; "temp___2772"
(define-fun temp___2772 () map1
  (slice d 32 63))

;; "slice'result'unused"
(define-fun sliceqtresultqtunused () map1
  temp___2772)

;; "temp___2776"
(define-fun temp___2776 () map2
  (convert temp___2772))

;; "convert'result'unused"
(define-fun convertqtresultqtunused1 () map2
  temp___2776)

(declare-const infix_lseqqtresultqtunused1 Bool)

;; "H"
(assert (= infix_lseqqtresultqtunused1 (ite (<= 32 63) true false)))

(declare-const usf1 us_t1)

;; "H"
(assert true)

;; "H"
(assert (= o4 (first1 usf1)))

;; "H"
(assert (= o3 (last1 usf1)))

;; "H"
(assert
  (forall ((temp___2777 Int))
    (ite (and (<= 32 temp___2777) (<= temp___2777 63))
      (= (get1 (to_array1 usf1) temp___2777) (get1 temp___2776 temp___2777))
      (= (get1 (to_array1 usf1) temp___2777) (get1 x1 temp___2777)))))

;; "any'result'unused"
(define-fun anyqtresultqtunused1 () us_t1
  usf1)

;; "o"
(define-fun o5 () map2
  (to_array1 usf1))

;; "to_array'result'unused"
(define-fun to_arrayqtresultqtunused1 () map2
  o5)

(declare-const x2 map2)

;; "x'unused"
(define-fun xqtunused2 () map__ref1
  (map__refqtmk1 x2))

;; "H"
(assert (= x2 o5))

(declare-const o6 Int)

;; "Ensures"
(assert (= (to_rep x__last) o6))

;; "to_rep'result'unused"
(define-fun to_repqtresultqtunused4 () Int
  o6)

(declare-const o7 Int)

;; "Ensures"
(assert (= (to_rep x__first) o7))

;; "to_rep'result'unused"
(define-fun to_repqtresultqtunused5 () Int
  o7)

;; "map__content'result'unused"
(define-fun map__contentqtresultqtunused3 () map2
  x2)

;; "temp___2794"
(define-fun temp___2794 () us_t1
  (of_array1 x2 o7 o6))

;; "of_array'result'unused"
(define-fun of_arrayqtresultqtunused2 () us_t1
  temp___2794)

;; "o"
(define-fun o8 () Int
  (first m))

;; "first'result'unused"
(define-fun firstqtresultqtunused () Int
  o8)

;; "o"
(define-fun o9 () map1
  (to_array m))

;; "to_array'result'unused"
(define-fun to_arrayqtresultqtunused2 () map1
  o9)

;; "temp___2784"
(define-fun temp___2784 () map1
  (slide o9 o8 64))

;; "slide'result'unused"
(define-fun slideqtresultqtunused () map1
  temp___2784)

;; "Assert"
(assert
  (ite (<= (first m) (last m))
    (and
      (<= 64 (to_rep x__last))
      (= (- (last m) (first m)) (- (to_rep x__last) 64)))
    (< (to_rep x__last) 64)))

(declare-const o10 Int)

;; "Ensures"
(assert (= (to_rep x__last) o10))

;; "to_rep'result'unused"
(define-fun to_repqtresultqtunused6 () Int
  o10)

;; "o"
(define-fun o11 () map2
  (convert temp___2784))

;; "convert'result'unused"
(define-fun convertqtresultqtunused2 () map2
  o11)

;; "temp___2786"
(define-fun temp___2786 () us_t1
  (of_array1 o11 64 o10))

;; "of_array'result'unused"
(define-fun of_arrayqtresultqtunused3 () us_t1
  temp___2786)

(declare-const o12 Int)

;; "Ensures"
(assert (= (to_rep x__last) o12))

;; "to_rep'result'unused"
(define-fun to_repqtresultqtunused7 () Int
  o12)

(declare-const o13 Int)

;; "Ensures"
(assert (= (to_rep x__first) o13))

;; "to_rep'result'unused"
(define-fun to_repqtresultqtunused8 () Int
  o13)

;; "map__content'result'unused"
(define-fun map__contentqtresultqtunused4 () map2
  x2)

;; "of_array'result'unused"
(define-fun of_arrayqtresultqtunused4 () us_t1
  (of_array1 x2 o13 o12))

(declare-const temp___2792 Int)

;; "Ensures"
(assert (= (to_rep x__last) temp___2792))

;; "to_rep'result'unused"
(define-fun to_repqtresultqtunused9 () Int
  temp___2792)

(declare-const o14 Int)

;; "Ensures"
(assert (= (to_rep x__last) o14))

;; "to_rep'result'unused"
(define-fun to_repqtresultqtunused10 () Int
  o14)

(declare-const o15 Int)

;; "Ensures"
(assert (= (to_rep x__first) o15))

;; "to_rep'result'unused"
(define-fun to_repqtresultqtunused11 () Int
  o15)

;; "map__content'result'unused"
(define-fun map__contentqtresultqtunused5 () map2
  x2)

;; "temp___2787"
(define-fun temp___2787 () us_t1
  (of_array1 x2 o15 o14))

;; "of_array'result'unused"
(define-fun of_arrayqtresultqtunused5 () us_t1
  temp___2787)

;; "Assert"
(assert
  (=>
    (<= 64 temp___2792)
    (and
      (and (<= o15 64) (<= 64 o14))
      (and (<= o15 temp___2792) (<= temp___2792 o14)))))

;; "o"
(define-fun o16 () map2
  x2)

;; "to_array'result'unused"
(define-fun to_arrayqtresultqtunused3 () map2
  o16)

;; "o"
(define-fun o17 () map2
  (slice1 o16 64 temp___2792))

;; "slice'result'unused"
(define-fun sliceqtresultqtunused1 () map2
  o17)

;; "temp___2793"
(define-fun temp___2793 () us_t1
  (of_array1 o17 64 temp___2792))

;; "of_array'result'unused"
(define-fun of_arrayqtresultqtunused6 () us_t1
  temp___2793)

;; "Assert"
(assert
  (ite (<= 64 o10)
    (and (<= 64 temp___2792) (= (- o10 64) (- temp___2792 64)))
    (< temp___2792 64)))

(declare-const o18 Int)

;; "Ensures"
(assert (= (to_rep x__last) o18))

(declare-const to_repqtresultqtunused12 Int)

;; "H"
(assert (= to_repqtresultqtunused12 o18))

(declare-const o19 Int)

;; "Ensures"
(assert (= (to_rep x__first) o19))

(declare-const to_repqtresultqtunused13 Int)

;; "H"
(assert (= to_repqtresultqtunused13 o19))

(declare-const map__contentqtresultqtunused6 map2)

;; "H"
(assert (= map__contentqtresultqtunused6 x2))

(declare-const of_arrayqtresultqtunused7 us_t1)

;; "H"
(assert (= of_arrayqtresultqtunused7 (of_array1 x2 o19 o18)))

(declare-const temp___2802 Int)

;; "Ensures"
(assert (= (to_rep x__last) temp___2802))

(declare-const to_repqtresultqtunused14 Int)

;; "H"
(assert (= to_repqtresultqtunused14 temp___2802))

(declare-const infix_lseqqtresultqtunused2 Bool)

;; "H"
(assert (= infix_lseqqtresultqtunused2 (ite (<= 64 temp___2802) true false)))

(declare-const usf2 us_t1)

;; "H"
(assert true)

;; "H"
(assert (= o7 (first1 usf2)))

;; "H"
(assert (= o6 (last1 usf2)))

;; "H"
(assert
  (forall ((temp___2797 Int))
    (ite (and (<= 64 temp___2797) (<= temp___2797 (to_rep x__last)))
      (= (get1 (to_array1 usf2) temp___2797) (get1 o11 temp___2797))
      (= (get1 (to_array1 usf2) temp___2797) (get1 x2 temp___2797)))))

;; "any'result'unused"
(define-fun anyqtresultqtunused2 () us_t1
  usf2)

;; "o"
(define-fun o20 () map2
  (to_array1 usf2))

;; "to_array'result'unused"
(define-fun to_arrayqtresultqtunused4 () map2
  o20)

(declare-const x3 map2)

;; "x'unused"
(define-fun xqtunused3 () map__ref1
  (map__refqtmk1 x3))

;; "H"
(assert (= x3 o20))

(declare-const o21 Int)

;; "Ensures"
(assert (= (to_rep x__last) o21))

;; "to_rep'result'unused"
(define-fun to_repqtresultqtunused15 () Int
  o21)

(declare-const o22 Int)

;; "Ensures"
(assert (= (to_rep x__first) o22))

;; "to_rep'result'unused"
(define-fun to_repqtresultqtunused16 () Int
  o22)

;; "map__content'result'unused"
(define-fun map__contentqtresultqtunused7 () map2
  x3)

;; "temp___2820"
(define-fun temp___2820 () us_t1
  (of_array1 x3 o22 o21))

;; "of_array'result'unused"
(define-fun of_arrayqtresultqtunused8 () us_t1
  temp___2820)

;; "_f"
(define-fun usf3 () Bool
  (ite (us_is_initialized temp___2820) true false))

;; "any'result'unused"
(define-fun anyqtresultqtunused3 () Bool
  usf3)

(declare-const temp___2819 us_t)

;; "Assert"
(assert
  (=> (<= 32 63) (and (and (<= 0 32) (<= 32 63)) (and (<= 0 63) (<= 63 63)))))

(declare-const map__contentqtresultqtunused8 map1)

;; "H"
(assert (= map__contentqtresultqtunused8 d))

(declare-const temp___2809 map1)

;; "H"
(assert (= temp___2809 (slice d 32 63)))

(declare-const sliceqtresultqtunused2 map1)

;; "H"
(assert (= sliceqtresultqtunused2 temp___2809))

(declare-const o23 Int)

;; "H"
(assert (= o23 (length 32 63)))

(declare-const lengthqtresultqtunused Int)

;; "H"
(assert (= lengthqtresultqtunused o23))

(declare-const o24 Int)

;; "H"
(assert (= o24 (length 0 31)))

(declare-const lengthqtresultqtunused1 Int)

;; "H"
(assert (= lengthqtresultqtunused1 o24))

(declare-const o25 Int)

;; "H"
(assert (= o25 (+ o24 o23)))

(declare-const infix_plqtresultqtunused Int)

;; "H"
(assert (= infix_plqtresultqtunused o25))

(declare-const o26 Int)

;; "H"
(assert (= o26 (+ 0 o25)))

(declare-const infix_plqtresultqtunused1 Int)

;; "H"
(assert (= infix_plqtresultqtunused1 o26))

(declare-const o27 Int)

;; "H"
(assert (= o27 (- o26 1)))

(declare-const infix_mnqtresultqtunused Int)

;; "H"
(assert (= infix_mnqtresultqtunused o27))

;; "Ensures"
(assert (in_range1 o27))

(declare-const range_check_qtresultqtunused Int)

;; "H"
(assert (= range_check_qtresultqtunused o27))

(declare-const o28 Int)

;; "H"
(assert (= o28 (length 32 63)))

(declare-const lengthqtresultqtunused2 Int)

;; "H"
(assert (= lengthqtresultqtunused2 o28))

(declare-const o29 Int)

;; "H"
(assert (= o29 (+ 2147483647 o28)))

(declare-const infix_plqtresultqtunused2 Int)

;; "H"
(assert (= infix_plqtresultqtunused2 o29))

(declare-const o30 map1)

;; "H"
(assert (= o30 (concat1 zero_bytes_32 0 31 temp___2809 32 63 o29)))

(declare-const concatqtresultqtunused map1)

;; "H"
(assert (= concatqtresultqtunused o30))

(declare-const temp___2810 us_t)

;; "H"
(assert (= temp___2810 (of_array o30 0 o27)))

(declare-const of_arrayqtresultqtunused9 us_t)

;; "H"
(assert (= of_arrayqtresultqtunused9 temp___2810))

(declare-const o31 Int)

;; "H"
(assert (= o31 (length1 temp___2810)))

(declare-const lengthqtresultqtunused3 Int)

;; "H"
(assert (= lengthqtresultqtunused3 o31))

(declare-const infix_eqqtresultqtunused Bool)

;; "H"
(assert (= infix_eqqtresultqtunused (ite (= o31 0) true false)))

(declare-const o32 Int)

(declare-const lastqtresultqtunused Int)

(declare-const o33 Int)

(declare-const firstqtresultqtunused1 Int)

(declare-const o34 Int)

(declare-const lengthqtresultqtunused4 Int)

(declare-const o35 Int)

(declare-const lastqtresultqtunused1 Int)

(declare-const o36 Int)

(declare-const firstqtresultqtunused2 Int)

(declare-const o37 Int)

(declare-const lengthqtresultqtunused5 Int)

(declare-const o38 Int)

(declare-const infix_plqtresultqtunused3 Int)

(declare-const o39 Int)

(declare-const firstqtresultqtunused3 Int)

(declare-const o40 Int)

(declare-const infix_plqtresultqtunused4 Int)

(declare-const o41 Int)

(declare-const infix_mnqtresultqtunused1 Int)

(declare-const range_check_qtresultqtunused1 Int)

(declare-const o42 Int)

(declare-const firstqtresultqtunused4 Int)

(declare-const o43 Int)

(declare-const lastqtresultqtunused2 Int)

(declare-const o44 Int)

(declare-const firstqtresultqtunused5 Int)

(declare-const o45 Int)

(declare-const lengthqtresultqtunused6 Int)

(declare-const o46 Int)

(declare-const infix_plqtresultqtunused5 Int)

(declare-const o47 Int)

(declare-const lastqtresultqtunused3 Int)

(declare-const o48 Int)

(declare-const firstqtresultqtunused6 Int)

(declare-const o49 map1)

(declare-const to_arrayqtresultqtunused5 map1)

(declare-const o50 Int)

(declare-const lastqtresultqtunused4 Int)

(declare-const o51 Int)

(declare-const firstqtresultqtunused7 Int)

(declare-const o52 map1)

(declare-const to_arrayqtresultqtunused6 map1)

(declare-const o53 map1)

(declare-const concatqtresultqtunused1 map1)

(declare-const of_arrayqtresultqtunused10 us_t)

(declare-const o54 Int)

(declare-const lastqtresultqtunused5 Int)

(declare-const o55 Int)

(declare-const firstqtresultqtunused8 Int)

(declare-const o56 map1)

(declare-const to_arrayqtresultqtunused7 map1)

(declare-const of_arrayqtresultqtunused11 us_t)

;; "H"
(assert
  (ite (= o31 0)
    (and
      (= o54 (last m))
      (and
        (= lastqtresultqtunused5 o54)
        (and
          (= o55 (first m))
          (and
            (= firstqtresultqtunused8 o55)
            (and
              (= o56 (to_array m))
              (and
                (= to_arrayqtresultqtunused7 o56)
                (and
                  (= temp___2819 m)
                  (= of_arrayqtresultqtunused11 temp___2819))))))))
    (and
      (= o32 (last m))
      (and
        (= lastqtresultqtunused o32)
        (and
          (= o33 (first m))
          (and
            (= firstqtresultqtunused1 o33)
            (and
              (= o34 (length o33 o32))
              (and
                (= lengthqtresultqtunused4 o34)
                (and
                  (= o35 o27)
                  (and
                    (= lastqtresultqtunused1 o35)
                    (and
                      (= o36 0)
                      (and
                        (= firstqtresultqtunused2 o36)
                        (and
                          (= o37 (length o36 o35))
                          (and
                            (= lengthqtresultqtunused5 o37)
                            (and
                              (= o38 (+ o37 o34))
                              (and
                                (= infix_plqtresultqtunused3 o38)
                                (and
                                  (= o39 0)
                                  (and
                                    (= firstqtresultqtunused3 o39)
                                    (and
                                      (= o40 (+ o39 o38))
                                      (and
                                        (= infix_plqtresultqtunused4 
                                        o40)
                                        (and
                                          (= o41 (- o40 1))
                                          (and
                                            (= infix_mnqtresultqtunused1 
                                            o41)
                                            (and
                                              (in_range1 o41)
                                              (and
                                                (= range_check_qtresultqtunused1 
                                                o41)
                                                (and
                                                  (= o42 0)
                                                  (and
                                                    (= firstqtresultqtunused4 
                                                    o42)
                                                    (and
                                                      (= o43 (last m))
                                                      (and
                                                        (= lastqtresultqtunused2 
                                                        o43)
                                                        (and
                                                          (= o44 (first m))
                                                          (and
                                                            (= firstqtresultqtunused5 
                                                            o44)
                                                            (and
                                                              (= o45 
                                                              (length
                                                                o44
                                                                o43))
                                                              (and
                                                                (= lengthqtresultqtunused6 
                                                                o45)
                                                                (and
                                                                  (= 
                                                                  o46 (+ 2147483647 
                                                                  o45))
                                                                  (and
                                                                    (= 
                                                                    infix_plqtresultqtunused5 
                                                                    o46)
                                                                    (and
                                                                    (= 
                                                                    o47 
                                                                    (last
                                                                    m))
                                                                    (and
                                                                    (= 
                                                                    lastqtresultqtunused3 
                                                                    o47)
                                                                    (and
                                                                    (= 
                                                                    o48 
                                                                    (first
                                                                    m))
                                                                    (and
                                                                    (= 
                                                                    firstqtresultqtunused6 
                                                                    o48)
                                                                    (and
                                                                    (= 
                                                                    o49 
                                                                    (to_array
                                                                    m))
                                                                    (and
                                                                    (= 
                                                                    to_arrayqtresultqtunused5 
                                                                    o49)
                                                                    (and
                                                                    (= 
                                                                    o50 
                                                                    o27)
                                                                    (and
                                                                    (= 
                                                                    lastqtresultqtunused4 
                                                                    o50)
                                                                    (and
                                                                    (= 
                                                                    o51 0)
                                                                    (and
                                                                    (= 
                                                                    firstqtresultqtunused7 
                                                                    o51)
                                                                    (and
                                                                    (= 
                                                                    o52 
                                                                    o30)
                                                                    (and
                                                                    (= 
                                                                    to_arrayqtresultqtunused6 
                                                                    o52)
                                                                    (and
                                                                    (= 
                                                                    o53 
                                                                    (concat1
                                                                    o52
                                                                    o51
                                                                    o50
                                                                    o49
                                                                    o48
                                                                    o47
                                                                    o46))
                                                                    (and
                                                                    (= 
                                                                    concatqtresultqtunused1 
                                                                    o53)
                                                                    (and
                                                                    (= 
                                                                    temp___2819 
                                                                    (of_array
                                                                    o53
                                                                    o42
                                                                    o41))
                                                                    (= 
                                                                    of_arrayqtresultqtunused10 
                                                                    temp___2819))))))))))))))))))))))))))))))))))))))))))))))))))

(declare-const o57 Int)

;; "Ensures"
(assert (= (to_rep x__last) o57))

;; "to_rep'result'unused"
(define-fun to_repqtresultqtunused17 () Int
  o57)

(declare-const o58 Int)

;; "Ensures"
(assert (= (to_rep x__first) o58))

;; "to_rep'result'unused"
(define-fun to_repqtresultqtunused18 () Int
  o58)

;; "map__content'result'unused"
(define-fun map__contentqtresultqtunused9 () map2
  x3)

;; "temp___2806"
(define-fun temp___2806 () us_t1
  (of_array1 x3 o58 o57))

;; "of_array'result'unused"
(define-fun of_arrayqtresultqtunused12 () us_t1
  temp___2806)

(declare-const temp___2813 Int)

;; "H"
(assert (<= o58 temp___2813))

;; "H"
(assert (<= temp___2813 o57))

;; Goal "def'vc"
;; File "sparknacl-sign.adb", line 905, characters 0-0
(assert
  (not (= (us_attr__init (get1 x3 temp___2813)) true)))

(check-sat)
